
  32    1
  10

   0   0  11 2 3 4 5 6 7 10 12 13 14 19 
   9   3   7 31 30 22 21 16 11 8 
   9   9   6 30 29 27 20 16 8 
  10   4   5 21 20 18 17 9 
   9   9   5 27 26 22 20 8 
   8   8   5 29 28 27 16 9 
   5   6   3 29 11 9 
   4   5   2 28 9 
   5  10   2 24 15 
   7   7   2 23 16 
   6   9   3 27 25 23 
   1   4   3 26 24 23 
   1   8   3 25 24 23 
   7  10   2 27 21 
   3  10   2 25 23 
   6  10   2 26 24 
   2  10   2 28 26 
   1  10   2 27 25 
   4   4   2 26 24 
   4  10   1 28 
   6  10   1 23 
   9  10   1 28 
   4   5   1 32
   1   5   1 32
   9  10   1 32
   9   7   1 32
   7  10   1 32
   9  10   1 32
   6  10   1 32
   3   7   1 32
   3  10   1 32
   0   0   0 
